NAME : local_10
TYPE : ATSP
DIMENSION : 13
EDGE_WEIGHT_TYPE : EXPLICIT
EDGE_WEIGHT_FORMAT : FULL_MATRIX
EDGE_WEIGHT_SECTION
0 653 10000000 807 902 998 10000000 764 10000000 858 10000000 703 10000000 
0 0 765 324 10000000 10000000 10000000 10000000 10000000 10000000 10000000 10000000 877 
0 765 0 700 10000000 10000000 10000000 10000000 10000000 10000000 10000000 10000000 160 
0 324 700 0 10000000 10000000 10000000 10000000 10000000 10000000 10000000 10000000 763 
0 10000000 10000000 10000000 0 157 342 194 10000000 229 689 278 10000000 
0 10000000 10000000 10000000 157 0 186 345 931 207 533 427 10000000 
0 10000000 10000000 10000000 342 186 0 525 744 308 346 604 10000000 
0 10000000 10000000 10000000 194 345 525 0 10000000 317 867 86 10000000 
0 10000000 10000000 10000000 10000000 931 744 10000000 0 998 398 10000000 10000000 
0 10000000 10000000 10000000 229 207 308 317 998 0 613 375 10000000 
0 10000000 10000000 10000000 689 533 346 867 398 613 0 943 10000000 
0 10000000 10000000 10000000 278 427 604 86 10000000 375 943 0 10000000 
0 10000000 10000000 10000000 10000000 10000000 10000000 10000000 10000000 10000000 10000000 10000000 0 
EOF